(set-info :source |printed by MathSAT|)
(declare-fun |!{$(in_main#0)<N>}| () Int)
(declare-fun |!{$(in_main#0)<N>}.next| () Int)
(declare-fun |!{$(in_main#0)<a>}| () Int)
(declare-fun |!{$(in_main#0)<a>}.next| () Int)
(declare-fun |!{$(in_main#0)<i>}| () Int)
(declare-fun |!{$(in_main#0)<i>}.next| () Int)
(declare-fun |!{$(in_main#0)<x>}| () Int)
(declare-fun |!{$(in_main#0)<x>}.next| () Int)
(declare-fun |!{$(in_main#0)<a1.1>}| () (Array Int Int))
(declare-fun |!{$(in_main#0)<a1.1>}.next| () (Array Int Int))
(declare-fun |!{$(in_main#0)<a3.2>}| () (Array Int Int))
(declare-fun |!{$(in_main#0)<a3.2>}.next| () (Array Int Int))
(declare-fun |!{$(in_main#0)<a2.3>}| () (Array Int Int))
(declare-fun |!{$(in_main#0)<a2.3>}.next| () (Array Int Int))
(declare-fun |!{$(in_main#0)<a4.4>}| () (Array Int Int))
(declare-fun |!{$(in_main#0)<a4.4>}.next| () (Array Int Int))
(declare-fun |!{$(in_main#0)<$(in___VERIFIER_nondet_int#0)<h#<__VERIFIER_nondet_int.return>>>}| () Int)
(declare-fun |!{$(in_main#0)<$(in___VERIFIER_nondet_int#1)<h#<__VERIFIER_nondet_int.return>>>}| () Int)
(declare-fun |!{$(in_main#0)<$(in___VERIFIER_nondet_int#2)<h#<__VERIFIER_nondet_int.return>>>}| () Int)
(declare-fun !pc () Int)
(declare-fun !pc.next () Int)
(declare-fun |%{$(in_main#0)<i>}#1| () Int)
(declare-fun |%{$(in_main#0)<x>}#1| () Int)
(declare-fun |%{$(in_main#0)<a1.1>}#1| () (Array Int Int))
(declare-fun |%{$(in_main#0)<a3.2>}#1| () (Array Int Int))
(declare-fun |%{$(in_main#0)<a2.3>}#1| () (Array Int Int))
(declare-fun |%{$(in_main#0)<a4.4>}#1| () (Array Int Int))
(define-fun .def_43 () Int (! !pc :next !pc.next))
(define-fun .def_46 () Bool (! (= .def_43 2) :init true))
(define-fun .def_234 () Bool (= .def_43 33))
(define-fun .def_208 () Bool (= !pc.next 62))
(define-fun .def_237 () Bool (and .def_208 .def_234))
(define-fun .def_10 () Int (! |!{$(in_main#0)<a>}| :next |!{$(in_main#0)<a>}.next|))
(define-fun .def_8 () Int (! |!{$(in_main#0)<N>}| :next |!{$(in_main#0)<N>}.next|))
(define-fun .def_215 () Bool (<= .def_8 .def_10))
(define-fun .def_183 () Bool (= |!{$(in_main#0)<i>}.next| 0))
(define-fun .def_93 () Bool (= .def_10 |!{$(in_main#0)<a>}.next|))
(define-fun .def_91 () Bool (= .def_8 |!{$(in_main#0)<N>}.next|))
(define-fun .def_108 () Bool (and .def_91 .def_93))
(define-fun .def_184 () Bool (and .def_108 .def_183))
(define-fun .def_14 () Int (! |!{$(in_main#0)<x>}| :next |!{$(in_main#0)<x>}.next|))
(define-fun .def_97 () Bool (= .def_14 |!{$(in_main#0)<x>}.next|))
(define-fun .def_185 () Bool (and .def_97 .def_184))
(define-fun .def_16 () (Array Int Int) (! |!{$(in_main#0)<a1.1>}| :next |!{$(in_main#0)<a1.1>}.next|))
(define-fun .def_99 () Bool (= .def_16 |!{$(in_main#0)<a1.1>}.next|))
(define-fun .def_186 () Bool (and .def_99 .def_185))
(define-fun .def_18 () (Array Int Int) (! |!{$(in_main#0)<a3.2>}| :next |!{$(in_main#0)<a3.2>}.next|))
(define-fun .def_101 () Bool (= .def_18 |!{$(in_main#0)<a3.2>}.next|))
(define-fun .def_187 () Bool (and .def_101 .def_186))
(define-fun .def_20 () (Array Int Int) (! |!{$(in_main#0)<a2.3>}| :next |!{$(in_main#0)<a2.3>}.next|))
(define-fun .def_103 () Bool (= .def_20 |!{$(in_main#0)<a2.3>}.next|))
(define-fun .def_188 () Bool (and .def_103 .def_187))
(define-fun .def_22 () (Array Int Int) (! |!{$(in_main#0)<a4.4>}| :next |!{$(in_main#0)<a4.4>}.next|))
(define-fun .def_105 () Bool (= .def_22 |!{$(in_main#0)<a4.4>}.next|))
(define-fun .def_189 () Bool (and .def_105 .def_188))
(define-fun .def_233 () Bool (and .def_189 .def_215))
(define-fun .def_238 () Bool (and .def_233 .def_237))
(define-fun .def_77 () Bool (= !pc.next 33))
(define-fun .def_235 () Bool (and .def_77 .def_234))
(define-fun .def_218 () (Array Int Int) (store .def_18 .def_10 |!{$(in_main#0)<$(in___VERIFIER_nondet_int#2)<h#<__VERIFIER_nondet_int.return>>>}|))
(define-fun .def_228 () Bool (= |!{$(in_main#0)<a3.2>}.next| .def_218))
(define-fun .def_217 () (Array Int Int) (store .def_16 .def_10 |!{$(in_main#0)<$(in___VERIFIER_nondet_int#1)<h#<__VERIFIER_nondet_int.return>>>}|))
(define-fun .def_226 () Bool (= |!{$(in_main#0)<a1.1>}.next| .def_217))
(define-fun .def_220 () Int (* (- 1) |!{$(in_main#0)<a>}.next|))
(define-fun .def_221 () Int (+ .def_10 .def_220))
(define-fun .def_222 () Bool (= .def_221 (- 1)))
(define-fun .def_223 () Bool (and .def_91 .def_222))
(define-fun .def_12 () Int (! |!{$(in_main#0)<i>}| :next |!{$(in_main#0)<i>}.next|))
(define-fun .def_95 () Bool (= .def_12 |!{$(in_main#0)<i>}.next|))
(define-fun .def_224 () Bool (and .def_95 .def_223))
(define-fun .def_225 () Bool (and .def_97 .def_224))
(define-fun .def_227 () Bool (and .def_225 .def_226))
(define-fun .def_229 () Bool (and .def_227 .def_228))
(define-fun .def_230 () Bool (and .def_103 .def_229))
(define-fun .def_231 () Bool (and .def_105 .def_230))
(define-fun .def_216 () Bool (not .def_215))
(define-fun .def_232 () Bool (and .def_216 .def_231))
(define-fun .def_236 () Bool (and .def_232 .def_235))
(define-fun .def_239 () Bool (or .def_236 .def_238))
(define-fun .def_207 () Bool (= .def_43 62))
(define-fun .def_193 () Bool (= !pc.next 76))
(define-fun .def_211 () Bool (and .def_193 .def_207))
(define-fun .def_146 () Bool (<= .def_8 .def_12))
(define-fun .def_190 () Bool (and .def_146 .def_189))
(define-fun .def_212 () Bool (and .def_190 .def_211))
(define-fun .def_209 () Bool (and .def_207 .def_208))
(define-fun .def_200 () Int (select .def_16 .def_12))
(define-fun .def_201 () (Array Int Int) (store .def_20 .def_12 .def_200))
(define-fun .def_202 () Bool (= |!{$(in_main#0)<a2.3>}.next| .def_201))
(define-fun .def_151 () Int (* (- 1) |!{$(in_main#0)<i>}.next|))
(define-fun .def_152 () Int (+ .def_12 .def_151))
(define-fun .def_153 () Bool (= .def_152 (- 1)))
(define-fun .def_154 () Bool (and .def_108 .def_153))
(define-fun .def_155 () Bool (and .def_97 .def_154))
(define-fun .def_156 () Bool (and .def_99 .def_155))
(define-fun .def_157 () Bool (and .def_101 .def_156))
(define-fun .def_203 () Bool (and .def_157 .def_202))
(define-fun .def_204 () Bool (and .def_105 .def_203))
(define-fun .def_147 () Bool (not .def_146))
(define-fun .def_205 () Bool (and .def_147 .def_204))
(define-fun .def_210 () Bool (and .def_205 .def_209))
(define-fun .def_213 () Bool (or .def_210 .def_212))
(define-fun .def_192 () Bool (= .def_43 76))
(define-fun .def_171 () Bool (= !pc.next 90))
(define-fun .def_196 () Bool (and .def_171 .def_192))
(define-fun .def_197 () Bool (and .def_190 .def_196))
(define-fun .def_194 () Bool (and .def_192 .def_193))
(define-fun .def_178 () Int (select .def_20 .def_12))
(define-fun .def_179 () (Array Int Int) (store .def_22 .def_12 .def_178))
(define-fun .def_180 () Bool (= |!{$(in_main#0)<a4.4>}.next| .def_179))
(define-fun .def_158 () Bool (and .def_103 .def_157))
(define-fun .def_181 () Bool (and .def_158 .def_180))
(define-fun .def_182 () Bool (and .def_147 .def_181))
(define-fun .def_195 () Bool (and .def_182 .def_194))
(define-fun .def_198 () Bool (or .def_195 .def_197))
(define-fun .def_170 () Bool (= .def_43 90))
(define-fun .def_135 () Bool (= !pc.next 104))
(define-fun .def_174 () Bool (and .def_135 .def_170))
(define-fun .def_162 () Bool (= |!{$(in_main#0)<x>}.next| 0))
(define-fun .def_109 () Bool (and .def_95 .def_108))
(define-fun .def_163 () Bool (and .def_109 .def_162))
(define-fun .def_164 () Bool (and .def_99 .def_163))
(define-fun .def_165 () Bool (and .def_101 .def_164))
(define-fun .def_166 () Bool (and .def_103 .def_165))
(define-fun .def_167 () Bool (and .def_105 .def_166))
(define-fun .def_168 () Bool (and .def_146 .def_167))
(define-fun .def_175 () Bool (and .def_168 .def_174))
(define-fun .def_172 () Bool (and .def_170 .def_171))
(define-fun .def_148 () Int (select .def_18 .def_12))
(define-fun .def_149 () (Array Int Int) (store .def_22 .def_12 .def_148))
(define-fun .def_159 () Bool (= |!{$(in_main#0)<a4.4>}.next| .def_149))
(define-fun .def_160 () Bool (and .def_158 .def_159))
(define-fun .def_161 () Bool (and .def_147 .def_160))
(define-fun .def_173 () Bool (and .def_161 .def_172))
(define-fun .def_176 () Bool (or .def_173 .def_175))
(define-fun .def_139 () Bool (= !pc.next 0))
(define-fun .def_130 () Bool (= .def_43 104))
(define-fun .def_140 () Bool (and .def_130 .def_139))
(define-fun .def_80 () Bool (<= .def_8 .def_14))
(define-fun .def_121 () Bool (and .def_80 .def_91))
(define-fun .def_122 () Bool (and .def_93 .def_121))
(define-fun .def_123 () Bool (and .def_95 .def_122))
(define-fun .def_124 () Bool (and .def_97 .def_123))
(define-fun .def_125 () Bool (and .def_99 .def_124))
(define-fun .def_126 () Bool (and .def_101 .def_125))
(define-fun .def_127 () Bool (and .def_103 .def_126))
(define-fun .def_128 () Bool (and .def_105 .def_127))
(define-fun .def_141 () Bool (and .def_128 .def_140))
(define-fun .def_136 () Bool (and .def_130 .def_135))
(define-fun .def_111 () Int (* (- 1) |!{$(in_main#0)<x>}.next|))
(define-fun .def_112 () Int (+ .def_14 .def_111))
(define-fun .def_113 () Bool (= .def_112 (- 1)))
(define-fun .def_114 () Bool (and .def_109 .def_113))
(define-fun .def_115 () Bool (and .def_99 .def_114))
(define-fun .def_116 () Bool (and .def_101 .def_115))
(define-fun .def_117 () Bool (and .def_103 .def_116))
(define-fun .def_118 () Bool (and .def_105 .def_117))
(define-fun .def_83 () Int (select .def_22 .def_14))
(define-fun .def_82 () Int (select .def_16 .def_14))
(define-fun .def_84 () Bool (= .def_82 .def_83))
(define-fun .def_85 () Int (ite .def_84 1 0))
(define-fun .def_86 () Bool (= .def_85 0))
(define-fun .def_87 () Bool (not .def_86))
(define-fun .def_119 () Bool (and .def_87 .def_118))
(define-fun .def_81 () Bool (not .def_80))
(define-fun .def_120 () Bool (and .def_81 .def_119))
(define-fun .def_137 () Bool (and .def_120 .def_136))
(define-fun .def_132 () Bool (= !pc.next 124))
(define-fun .def_133 () Bool (and .def_130 .def_132))
(define-fun .def_92 () Bool (and .def_86 .def_91))
(define-fun .def_94 () Bool (and .def_92 .def_93))
(define-fun .def_96 () Bool (and .def_94 .def_95))
(define-fun .def_98 () Bool (and .def_96 .def_97))
(define-fun .def_100 () Bool (and .def_98 .def_99))
(define-fun .def_102 () Bool (and .def_100 .def_101))
(define-fun .def_104 () Bool (and .def_102 .def_103))
(define-fun .def_106 () Bool (and .def_104 .def_105))
(define-fun .def_107 () Bool (and .def_81 .def_106))
(define-fun .def_134 () Bool (and .def_107 .def_133))
(define-fun .def_138 () Bool (or .def_134 .def_137))
(define-fun .def_142 () Bool (or .def_138 .def_141))
(define-fun .def_78 () Bool (and .def_46 .def_77))
(define-fun .def_74 () Bool (= |!{$(in_main#0)<a4.4>}.next| |%{$(in_main#0)<a4.4>}#1|))
(define-fun .def_72 () Bool (= |!{$(in_main#0)<a2.3>}.next| |%{$(in_main#0)<a2.3>}#1|))
(define-fun .def_70 () Bool (= |!{$(in_main#0)<a3.2>}.next| |%{$(in_main#0)<a3.2>}#1|))
(define-fun .def_68 () Bool (= |!{$(in_main#0)<a1.1>}.next| |%{$(in_main#0)<a1.1>}#1|))
(define-fun .def_66 () Bool (= |!{$(in_main#0)<x>}.next| |%{$(in_main#0)<x>}#1|))
(define-fun .def_64 () Bool (= |!{$(in_main#0)<i>}.next| |%{$(in_main#0)<i>}#1|))
(define-fun .def_62 () Bool (= |!{$(in_main#0)<a>}.next| 0))
(define-fun .def_61 () Bool (= |!{$(in_main#0)<N>}.next| |!{$(in_main#0)<$(in___VERIFIER_nondet_int#0)<h#<__VERIFIER_nondet_int.return>>>}|))
(define-fun .def_63 () Bool (and .def_61 .def_62))
(define-fun .def_65 () Bool (and .def_63 .def_64))
(define-fun .def_67 () Bool (and .def_65 .def_66))
(define-fun .def_69 () Bool (and .def_67 .def_68))
(define-fun .def_71 () Bool (and .def_69 .def_70))
(define-fun .def_73 () Bool (and .def_71 .def_72))
(define-fun .def_75 () Bool (and .def_73 .def_74))
(define-fun .def_79 () Bool (and .def_75 .def_78))
(define-fun .def_143 () Bool (or .def_79 .def_142))
(define-fun .def_177 () Bool (or .def_143 .def_176))
(define-fun .def_199 () Bool (or .def_177 .def_198))
(define-fun .def_214 () Bool (or .def_199 .def_213))
(define-fun .def_240 () Bool (! (or .def_214 .def_239) :trans true))
(define-fun .def_144 () Bool (= .def_43 124))
(define-fun .def_241 () Bool (! (not .def_144) :invar-property 0 :invar-property-name ||))
(assert true)
